ID_groupA,ID_groupB
176,4914
3443,209
3443,209
3443,209
3443,209
3443,209
3443,209
3443,209
1169,209
3443,209
3443,209
3443,232
3443,209
3443,209
3443,4914
3443,4914
3443,4914
3443,4914
3443,4914
3443,4914
176,4914
3443,4914
3443,4914
3443,4914
176,4914
3443,4914
176,4914
4005,4187
3443,209
3443,209
3443,209
3443,209
3443,209
3443,209
4005,3869
3443,209
3443,232
3443,209
3443,209
2422,4187
3443,4187
3443,4187
4005,4187
3443,209
3443,209
4005,4187
3443,209
3443,232
3443,4187
3443,209
3443,209
3443,209
3443,209
3443,209
3443,209
3443,209
3443,209
3443,232
3443,209
3443,209
3443,209
3443,209
3443,209
3443,209
3443,209
3443,209
3443,232
3443,209
3443,209
3443,209
3443,209
3443,209
3443,209
3443,209
3443,232
3443,209
3443,209
3443,209
3443,209
4005,4187
3443,209
3443,232
3443,209
3443,209
1169,209
3443,209
3443,209
3443,232
3443,209
3443,209
3443,209
1169,209
3443,232
3443,209
1169,209
3443,209
3443,232
3443,209
3443,209
3443,232
3443,209
3443,209
3443,232
176,4914
3443,209
